000 000 000 000 001 000 001 001 002 001 001 001 001 001 002 002 002 002 002 001 001 002 003 003 002 003 002 003 003 002 003
000 000 000 000 001 001 001 001 001 001 001 001 001 001 002 002 001 001 002 002 001 001 002 002 003 002 002 002 002 003 005
000 000 000 000 000 001 001 001 002 001 001 001 001 001 002 001 001 001 002 001 001 001 002 001 002 002 003 003 003 004 006
000 000 000 000 001 001 001 001 001 001 001 002 001 002 002 001 001 002 001 001 001 001 002 002 002 002 003 003 003 006 006
000 000 000 000 001 001 001 001 001 001 001 001 001 001 001 001 002 002 002 002 001 001 002 001 002 003 004 005 004 006 005
000 000 000 000 001 000 001 001 000 000 000 001 000 001 001 001 001 001 002 002 002 001 001 001 003 003 005 006 005 005 006
000 000 000 000 000 001 000 000 000 000 001 000 000 000 000 001 001 001 001 002 002 001 001 001 002 003 005 006 006 004 005
000 000 000 000 000 000 000 000 000 000 000 000 000 000 000 001 001 001 001 001 002 002 001 001 002 004 003 006 006 003 003
000 000 000 000 000 000 000 000 000 000 000 000 000 000 000 000 001 000 001 001 001 001 002 001 002 004 002 003 002 002 002
000 000 000 000 000 000 000 000 000 000 000 000 000 000 000 001 001 000 001 001 000 001 001 001 001 002 003 002 002 002 001
000 000 000 000 000 000 000 000 000 000 000 000 000 000 000 001 001 001 000 001 000 000 001 001 001 004 004 002 002 001 001
000 000 000 000 000 000 000 000 000 000 000 000 000 000 001 001 000 000 000 000 001 001 001 001 001 001 003 001 003 001 001
000 000 000 000 000 000 000 000 000 000 000 000 000 000 000 000 000 000 000 000 000 001 -99 000 001 001 001 001 002 002 001
000 000 000 000 000 000 000 000 000 000 001 001 001 001 000 000 001 000 000 000 000 000 -99 000 000 000 000 000 002 002 001
000 000 000 000 000 000 000 000 001 001 001 001 002 000 000 000 001 000 000 000 000 000 -99 000 000 000 000 001 002 002 -99
000 -99 000 000 000 000 001 001 001 001 002 002 001 000 000 000 000 000 000 000 000 000 -99 000 000 000 000 001 001 001 -99
000 000 000 -99 000 000 002 001 001 001 001 002 001 000 000 000 000 000 000 -99 000 000 000 -99 000 000 000 001 001 000 000
000 000 000 000 -99 000 002 001 000 001 000 001 000 000 000 000 000 000 000 000 000 000 000 -99 000 000 000 000 001 000 000
000 000 000 000 000 001 002 001 000 000 000 000 000 000 000 000 000 000 000 -99 000 000 -99 -99 -99 000 -99 -99 -99 000 000
000 000 000 000 000 001 001 000 000 000 000 000 000 000 000 000 000 000 000 000 000 000 000 -99 -99 -99 -99 -99 -99 -99 -99
000 000 000 000 000 000 000 000 000 000 000 000 000 000 000 000 000 000 -99 -99 000 000 000 -99 -99 -99 -99 -99 -99 -99 -99
000 000 000 000 000 000 000 000 000 000 000 000 000 000 000 000 000 000 000 000 000 000 000 -99 -99 -99 -99 -99 -99 -99 -99
000 000 000 000 000 000 000 000 000 000 000 000 000 000 000 000 000 000 000 000 000 000 000 -99 -99 -99 -99 -99 -99 -99 -99
000 000 000 000 000 000 000 000 000 000 -99 -99 -99 000 000 000 000 000 000 000 000 000 000 -99 -99 -99 -99 -99 -99 -99 000
000 000 000 000 000 000 000 000 000 000 -99 -99 000 000 000 000 000 000 000 000 000 000 000 -99 -99 -99 -99 -99 -99 -99 000
000 000 000 000 000 000 000 000 000 000 -99 -99 -99 000 000 000 000 000 000 000 000 000 000 -99 -99 -99 -99 -99 -99 -99 000
000 000 000 000 000 000 000 000 000 000 000 000 000 000 000 000 000 000 000 000 000 000 000 -99 -99 -99 -99 -99 -99 -99 000
000 000 000 -99 000 000 000 000 000 000 000 000 000 000 000 000 000 000 000 000 -99 000 000 -99 -99 -99 -99 -99 -99 -99 -99
000 000 000 -99 000 000 -99 000 000 000 000 000 000 000 000 000 000 000 000 000 -99 000 -99 -99 -99 -99 -99 -99 -99 -99 -99
000 000 000 000 000 000 -99 000 000 000 000 000 000 000 000 000 000 000 000 -99 -99 000 -99 -99 -99 -99 -99 -99 -99 -99 -99
000 000 000 000 000 -99 000 000 000 000 000 000 000 000 000 000 000 000 000 -99 -99 000 -99 -99 -99 -99 -99 -99 -99 -99 -99
000 000 000 000 000 000 000 000 000 000 000 000 000 000 000 -99 -99 000 000 -99 -99 -99 -99 -99 -99 -99 -99 -99 -99 -99 -99
000 000 000 000 000 000 000 000 000 000 000 000 000 000 000 -99 000 000 000 -99 -99 -99 -99 -99 -99 -99 -99 -99 -99 -99 000
000 000 000 000 000 000 000 000 000 000 -99 000 000 000 000 -99 000 000 000 -99 -99 -99 -99 -99 -99 -99 -99 000 -99 -99 000
000 000 000 000 000 000 000 000 000 000 -99 000 000 000 -99 000 000 000 000 000 000 -99 -99 -99 -99 000 000 000 -99 -99 000
000 000 000 000 000 000 000 000 000 000 -99 000 000 000 000 000 000 000 000 000 000 000 000 -99 -99 000 000 000 -99 000 000
000 000 000 000 000 000 000 000 000 000 -99 000 000 000 000 000 000 000 000 000 000 000 000 000 -99 000 000 000 000 000 000
000 000 000 000 000 000 000 000 000 -99 -99 000 000 000 000 000 000 000 000 000 000 000 000 000 000 000 000 000 000 000 000
000 000 000 000 000 000 000 000 -99 -99 -99 000 000 000 000 000 000 000 000 000 000 000 000 000 000 000 000 000 -99 000 000
000 000 000 000 000 -99 -99 000 -99 -99 -99 000 000 000 000 000 000 000 000 000 000 -99 000 000 000 000 000 000 -99 000 000
000 000 000 000 000 -99 -99 -99 -99 -99 000 000 000 000 000 000 000 -99 000 000 -99 -99 000 000 000 000 000 000 -99 000 000
000 000 -99 000 000 000 000 -99 -99 -99 000 000 000 000 000 -99 -99 000 000 000 -99 -99 000 000 000 000 -99 -99 -99 000 000
000 000 -99 -99 -99 000 -99 -99 -99 000 000 000 000 000 000 -99 000 000 000 000 -99 000 000 000 000 000 000 -99 -99 -99 000
000 000 -99 -99 -99 000 -99 -99 -99 -99 000 000 000 000 000 000 -99 000 000 000 -99 000 000 000 000 000 000 000 -99 -99 000
000 000 -99 -99 -99 -99 -99 -99 -99 -99 000 000 000 000 000 000 000 000 000 000 000 000 000 000 000 000 000 000 -99 -99 -99
000 000 -99 000 000 000 -99 -99 -99 -99 000 000 000 000 000 -99 000 000 000 000 000 000 000 000 000 000 000 000 -99 -99 000
000 -99 -99 000 000 000 -99 -99 -99 -99 000 000 000 000 000 -99 -99 000 000 000 000 000 000 000 000 000 000 -99 -99 -99 -99
-99 -99 -99 000 -99 -99 -99 000 000 000 -99 000 000 -99 -99 -99 -99 000 000 000 000 000 -99 -99 000 000 -99 -99 -99 -99 -99
-99 -99 -99 -99 -99 -99 -99 -99 000 000 000 -99 -99 -99 -99 -99 000 000 000 000 000 -99 -99 -99 000 000 000 000 -99 -99 -99
-99 -99 -99 -99 -99 -99 -99 000 000 000 000 000 -99 -99 -99 -99 000 000 000 000 000 000 000 000 000 000 000 000 -99 -99 -99
-99 -99 -99 -99 -99 -99 -99 000 000 000 000 -99 -99 -99 -99 -99 000 000 000 000 000 000 000 -99 -99 000 000 000 000 -99 -99
-99 -99 -99 -99 -99 -99 000 000 000 000 000 -99 000 -99 -99 000 000 000 000 000 -99 -99 000 -99 -99 000 000 -99 -99 -99 -99
000 -99 -99 -99 -99 -99 000 -99 000 000 000 -99 000 -99 -99 -99 000 000 000 000 000 -99 -99 -99 -99 -99 -99 -99 -99 -99 -99
-99 -99 -99 -99 -99 -99 000 -99 -99 000 000 -99 -99 -99 -99 -99 000 000 -99 -99 -99 -99 -99 -99 -99 -99 -99 -99 -99 -99 -99
-99 -99 -99 -99 -99 000 -99 -99 000 000 000 -99 -99 -99 -99 000 000 -99 -99 -99 -99 -99 -99 -99 -99 -99 -99 -99 -99 -99 -99
